Academic license - for non-commercial use only
#nb trucks
Define done!
Optimize a model with 70551 rows, 615 columns and 3456507 nonzeros
Variable types: 0 continuous, 615 integer (482 binary)
Coefficient statistics:
  Matrix range     [1e+00, 1e+05]
  Objective range  [2e+00, 4e+01]
  Bounds range     [1e+00, 1e+04]
  RHS range        [1e+00, 1e+05]
Presolve removed 67583 rows and 237 columns
Presolve time: 4.07s
Presolved: 2968 rows, 378 columns, 9362 nonzeros
Variable types: 0 continuous, 378 integer (286 binary)

Root relaxation: objective 1.700000e+01, 66 iterations, 0.01 seconds

    Nodes    |    Current Node    |     Objective Bounds      |     Work
 Expl Unexpl |  Obj  Depth IntInf | Incumbent    BestBd   Gap | It/Node Time

     0     0   17.00000    0   14          -   17.00000      -     -    4s
     0     0   17.00000    0   28          -   17.00000      -     -    4s
     0     0   17.00000    0   28          -   17.00000      -     -    4s
     0     0   17.00000    0   24          -   17.00000      -     -    4s
     0     0   17.00000    0   24          -   17.00000      -     -    4s
     0     0   17.00000    0   19          -   17.00000      -     -    5s
     0     0   17.00000    0   19          -   17.00000      -     -    5s
     0     0   17.00000    0   23          -   17.00000      -     -    5s
     0     0   17.00000    0   22          -   17.00000      -     -    5s
     0     2   17.14286    0   32          -   17.14286      -     -    8s
   756   524   24.92857   16   22          -   18.00000      -  11.1   12s
*  872   534              31      50.0000000   22.06403  55.9%   3.2   13s
H  939   487                      49.0000000   24.00000  51.0%   3.8   13s
  1996   238 infeasible   22        49.00000   28.43606  42.0%   6.9   15s
* 2800   100              28      48.0000000   35.31969  26.4%   7.3   16s

Cutting planes:
  Gomory: 1
  Implied bound: 7
  MIR: 7
  Inf proof: 1

Explored 3659 nodes (35729 simplex iterations) in 16.71 seconds
Thread count was 4 (of 4 available processors)

Solution count 3: 48 49 50 

Optimal solution found (tolerance 1.00e-04)
Best objective 4.800000000000e+01, best bound 4.800000000000e+01, gap 0.0000%
Optimize done!
X(0,18,17) -0.0
X(0,2,3) -0.0
X(0,18,19) -0.0
X(0,2,4) 0.0
X(0,18,20) -0.0
X(0,2,5) 0.0
X(0,2,6) -0.0
X(0,2,8) 0.0
X(0,2,9) -0.0
X(0,2,10) -0.0
X(0,2,14) 0.0
X(0,2,15) 0.0
X(0,19,0) -0.0
X(0,2,16) -0.0
X(0,2,17) 0.0
X(0,19,2) 0.0
X(0,2,18) 0.0
X(0,19,3) -0.0
X(0,2,19) 0.0
X(0,19,4) -0.0
X(0,2,20) -0.0
X(0,19,5) 0.0
X(0,19,6) -0.0
X(0,19,8) 0.0
X(0,19,9) -0.0
X(0,19,10) -0.0
X(0,19,14) -0.0
X(0,19,15) -0.0
X(0,3,0) -0.0
X(0,19,16) -0.0
X(0,19,17) -0.0
X(0,3,2) 0.0
X(0,19,18) -0.0
X(0,3,4) 0.0
X(0,19,20) -0.0
X(0,3,5) 0.0
X(0,3,6) 0.0
X(0,3,8) 0.0
X(0,3,9) 0.0
X(0,3,10) -0.0
X(0,3,14) -0.0
X(0,3,15) -0.0
X(0,20,0) -0.0
X(0,3,16) -0.0
X(0,3,17) -0.0
X(0,20,2) 0.0
X(0,3,18) -0.0
X(0,20,3) -0.0
X(0,3,19) -0.0
X(0,20,4) -0.0
X(0,3,20) -0.0
X(0,20,5) 0.0
X(0,20,6) 0.0
X(0,20,8) 0.0
X(0,20,9) 0.0
X(0,20,10) 0.0
X(0,20,14) -0.0
X(0,20,15) 0.0
X(0,4,0) 0.0
X(0,20,16) -0.0
X(0,20,17) -0.0
X(0,4,2) 0.0
X(0,20,18) -0.0
X(0,4,3) -0.0
X(0,20,19) -0.0
X(0,4,5) 0.0
X(0,4,6) 1.0
X(0,4,8) 0.0
X(0,4,9) -0.0
X(0,4,10) -0.0
X(0,4,14) -0.0
X(0,4,15) -0.0
X(0,4,16) -0.0
X(0,4,17) -0.0
X(0,4,18) -0.0
X(0,4,19) -0.0
X(0,4,20) -0.0
X(0,6,0) 0.0
X(0,6,2) 0.0
X(0,6,3) 0.0
X(0,6,4) 0.0
X(0,6,5) 1.0
X(0,6,8) -0.0
X(0,6,9) 0.0
X(0,6,10) 0.0
X(0,6,14) 0.0
X(0,6,15) 0.0
X(0,6,16) 0.0
X(0,6,17) 0.0
X(0,6,18) 0.0
X(0,6,19) 0.0
X(0,6,20) 0.0
X(0,8,0) -0.0
X(0,8,2) 0.0
X(0,8,3) -0.0
X(0,8,4) 0.0
X(0,8,5) 0.0
X(0,8,6) -0.0
X(0,8,9) -0.0
X(0,8,10) 0.0
X(0,8,14) 0.0
X(0,8,15) 0.0
X(0,8,16) -0.0
X(0,8,17) 0.0
X(0,8,18) 0.0
X(0,8,19) 0.0
X(0,8,20) 0.0
X(0,9,0) 0.0
X(0,9,2) -0.0
X(0,9,3) 0.0
X(0,9,4) 0.0
X(0,9,5) -0.0
X(0,9,6) 0.0
X(0,9,8) 0.0
X(0,9,10) 0.0
X(0,9,14) 0.0
X(0,9,15) 0.0
X(0,9,16) 0.0
X(0,9,17) 0.0
X(0,9,18) 0.0
X(0,9,19) 0.0
X(0,9,20) 0.0
X(0,10,0) -0.0
X(0,10,2) 0.0
X(0,10,3) 0.0
X(0,10,4) -0.0
X(0,10,5) 0.0
X(0,10,6) 0.0
X(0,10,8) 0.0
X(0,10,9) 0.0
X(0,10,14) 1.0
X(0,10,15) -0.0
X(0,10,16) -0.0
X(0,10,17) -0.0
X(0,10,18) -0.0
X(0,10,19) -0.0
X(0,10,20) -0.0
X(0,14,0) -0.0
X(0,14,2) 0.0
X(0,14,3) -0.0
X(0,14,4) 1.0
X(0,14,5) 0.0
X(0,14,6) 0.0
X(0,14,8) 0.0
X(0,14,9) -0.0
X(0,14,10) -0.0
X(0,14,15) -0.0
X(0,14,16) -0.0
X(0,14,17) -0.0
X(0,14,18) -0.0
X(0,14,19) -0.0
X(0,14,20) -0.0
X(0,15,0) -0.0
X(0,15,2) 0.0
X(0,15,3) -0.0
X(0,15,4) -0.0
X(0,15,5) 0.0
X(0,15,6) -0.0
X(0,15,8) 0.0
X(0,15,9) 0.0
X(0,15,10) -0.0
X(0,15,14) -0.0
X(0,15,16) -0.0
X(0,15,17) 0.0
X(0,15,18) -0.0
X(0,15,19) 0.0
X(0,15,20) 0.0
X(0,16,0) -0.0
X(0,16,2) 0.0
X(0,16,3) -0.0
X(0,16,4) -0.0
X(0,16,5) 0.0
X(0,16,6) 0.0
X(0,16,8) 0.0
X(0,16,9) 0.0
X(0,16,10) -0.0
X(0,16,14) -0.0
X(0,16,15) -0.0
X(0,16,17) 0.0
X(0,0,2) 0.0
X(0,16,18) 0.0
X(0,0,3) -0.0
X(0,16,19) -0.0
X(0,0,4) -0.0
X(0,16,20) -0.0
X(0,0,5) 0.0
X(0,0,6) 0.0
X(0,0,8) 0.0
X(0,0,9) 0.0
X(0,0,10) 1.0
X(0,0,14) 0.0
X(0,0,15) -0.0
X(0,17,0) -0.0
X(0,0,16) -0.0
X(0,0,17) -0.0
X(0,17,2) 0.0
X(0,0,18) -0.0
X(0,17,3) -0.0
X(0,0,19) -0.0
X(0,17,4) -0.0
X(0,0,20) -0.0
X(0,17,5) 0.0
X(0,17,6) -0.0
X(0,17,8) 0.0
X(0,17,9) -0.0
X(0,17,10) -0.0
X(0,17,14) -0.0
X(0,17,15) -0.0
X(0,17,16) -0.0
X(0,1,0) 0.0
X(0,17,18) -0.0
X(0,1,2) 1.0
X(0,17,19) -0.0
X(0,1,3) 0.0
X(0,17,20) -0.0
X(0,1,4) 0.0
X(0,1,5) 0.0
X(0,1,6) 0.0
X(0,1,8) -0.0
X(0,1,9) 0.0
X(0,1,10) 0.0
X(0,1,14) 0.0
X(0,18,0) -0.0
X(0,1,15) 0.0
X(0,1,16) 0.0
X(0,18,2) 0.0
X(0,1,17) 0.0
X(0,18,3) -0.0
X(0,1,18) 0.0
X(0,18,4) -0.0
X(0,1,19) 0.0
X(0,18,5) 0.0
X(0,1,20) 0.0
X(0,18,6) -0.0
X(0,18,8) 0.0
X(0,18,9) -0.0
X(0,18,10) -0.0
X(0,18,14) -0.0
X(0,18,15) -0.0
X(0,2,0) 1.0
X(0,18,16) -0.0
X(1,18,17) -0.0
X(1,2,3) -0.0
X(1,18,19) -0.0
X(1,2,4) 0.0
X(1,18,20) -0.0
X(1,2,6) -0.0
X(1,2,8) 0.0
X(1,2,9) -0.0
X(1,2,10) -0.0
X(1,2,12) 0.0
X(1,2,14) 0.0
X(1,2,15) 0.0
X(1,19,0) -0.0
X(1,2,16) -0.0
X(1,2,17) 0.0
X(1,19,2) 0.0
X(1,2,18) 0.0
X(1,19,3) -0.0
X(1,2,19) 0.0
X(1,19,4) -0.0
X(1,2,20) -0.0
X(1,19,6) -0.0
X(1,19,8) 0.0
X(1,19,9) -0.0
X(1,19,10) -0.0
X(1,19,12) 0.0
X(1,19,14) -0.0
X(1,19,15) -0.0
X(1,3,0) -0.0
X(1,19,16) -0.0
X(1,19,17) -0.0
X(1,3,2) 0.0
X(1,19,18) 0.0
X(1,3,4) -0.0
X(1,19,20) 1.0
X(1,3,6) 0.0
X(1,3,8) 0.0
X(1,3,9) 0.0
X(1,3,10) -0.0
X(1,3,12) 0.0
X(1,3,14) -0.0
X(1,3,15) -0.0
X(1,20,0) -0.0
X(1,3,16) -0.0
X(1,3,17) -0.0
X(1,20,2) 0.0
X(1,3,18) -0.0
X(1,20,3) -0.0
X(1,3,19) -0.0
X(1,20,4) -0.0
X(1,3,20) -0.0
X(1,20,6) 0.0
X(1,20,8) 0.0
X(1,20,9) 0.0
X(1,20,10) -0.0
X(1,20,12) 0.0
X(1,20,14) -0.0
X(1,20,15) 1.0
X(1,4,0) -0.0
X(1,20,16) -0.0
X(1,20,17) 0.0
X(1,4,2) 0.0
X(1,20,18) 0.0
X(1,4,3) -0.0
X(1,20,19) -0.0
X(1,4,6) 0.0
X(1,4,8) 0.0
X(1,4,9) -0.0
X(1,4,10) -0.0
X(1,4,12) 0.0
X(1,4,14) 0.0
X(1,4,15) -0.0
X(1,4,16) -0.0
X(1,4,17) -0.0
X(1,4,18) -0.0
X(1,4,19) -0.0
X(1,4,20) -0.0
X(1,6,0) 0.0
X(1,6,2) 0.0
X(1,6,3) 0.0
X(1,6,4) 0.0
X(1,6,8) -0.0
X(1,6,9) 0.0
X(1,6,10) 0.0
X(1,6,12) -0.0
X(1,6,14) 0.0
X(1,6,15) 0.0
X(1,6,16) 0.0
X(1,6,17) 0.0
X(1,6,18) 0.0
X(1,6,19) 0.0
X(1,6,20) 0.0
X(1,8,0) -0.0
X(1,8,2) 0.0
X(1,8,3) -0.0
X(1,8,4) 0.0
X(1,8,6) -0.0
X(1,8,9) -0.0
X(1,8,10) -0.0
X(1,8,12) 0.0
X(1,8,14) 0.0
X(1,8,15) 0.0
X(1,8,16) 1.0
X(1,8,17) 0.0
X(1,8,18) 0.0
X(1,8,19) 0.0
X(1,8,20) -0.0
X(1,9,0) 0.0
X(1,9,2) -0.0
X(1,9,3) 0.0
X(1,9,4) 0.0
X(1,9,6) 0.0
X(1,9,8) 0.0
X(1,9,10) 0.0
X(1,9,12) 1.0
X(1,9,14) 0.0
X(1,9,15) 0.0
X(1,9,16) 0.0
X(1,9,17) 0.0
X(1,9,18) 0.0
X(1,9,19) 0.0
X(1,9,20) 0.0
X(1,10,0) -0.0
X(1,10,2) 0.0
X(1,10,3) 0.0
X(1,10,4) 0.0
X(1,10,6) 0.0
X(1,10,8) 0.0
X(1,10,9) 0.0
X(1,10,12) 0.0
X(1,10,14) 0.0
X(1,10,15) -0.0
X(1,10,16) -0.0
X(1,10,17) -0.0
X(1,10,18) -0.0
X(1,10,19) -0.0
X(1,10,20) -0.0
X(1,11,0) 0.0
X(1,11,2) -0.0
X(1,11,3) 0.0
X(1,11,4) 0.0
X(1,11,6) 0.0
X(1,11,8) 1.0
X(1,11,9) 0.0
X(1,11,10) 0.0
X(1,11,12) 0.0
X(1,11,14) 0.0
X(1,11,15) 0.0
X(1,11,16) 0.0
X(1,11,17) 0.0
X(1,11,18) 0.0
X(1,11,19) 0.0
X(1,11,20) 0.0
X(1,14,0) 0.0
X(1,14,2) 0.0
X(1,14,3) 0.0
X(1,14,4) -0.0
X(1,14,6) -0.0
X(1,14,8) 0.0
X(1,14,9) -0.0
X(1,14,10) -0.0
X(1,14,12) 0.0
X(1,14,15) -0.0
X(1,14,16) -0.0
X(1,14,17) -0.0
X(1,14,18) -0.0
X(1,14,19) -0.0
X(1,14,20) -0.0
X(1,15,0) -0.0
X(1,15,2) 0.0
X(1,15,3) -0.0
X(1,15,4) -0.0
X(1,15,6) -0.0
X(1,15,8) 0.0
X(1,15,9) 1.0
X(1,15,10) -0.0
X(1,15,12) 0.0
X(1,15,14) -0.0
X(1,15,16) -0.0
X(1,15,17) -0.0
X(1,15,18) -0.0
X(1,15,19) -0.0
X(1,15,20) 0.0
X(1,16,0) -0.0
X(1,16,2) 0.0
X(1,16,3) -0.0
X(1,16,4) -0.0
X(1,16,6) 0.0
X(1,16,8) 0.0
X(1,16,9) 0.0
X(1,16,10) -0.0
X(1,16,12) 0.0
X(1,16,14) -0.0
X(1,16,15) -0.0
X(1,16,17) 0.0
X(1,0,2) 0.0
X(1,16,18) -0.0
X(1,0,3) -0.0
X(1,16,19) 1.0
X(1,0,4) 0.0
X(1,16,20) -0.0
X(1,0,6) 0.0
X(1,0,8) 0.0
X(1,0,9) 0.0
X(1,0,10) -0.0
X(1,0,12) 0.0
X(1,0,14) -0.0
X(1,0,15) -0.0
X(1,17,0) -0.0
X(1,0,16) -0.0
X(1,0,17) -0.0
X(1,17,2) 0.0
X(1,0,18) -0.0
X(1,17,3) -0.0
X(1,0,19) -0.0
X(1,17,4) -0.0
X(1,0,20) 0.0
X(1,17,6) -0.0
X(1,17,8) 0.0
X(1,17,9) -0.0
X(1,17,10) -0.0
X(1,17,12) 0.0
X(1,17,14) -0.0
X(1,17,15) 0.0
X(1,17,16) -0.0
X(1,17,18) -0.0
X(1,17,19) -0.0
X(1,17,20) -0.0
X(1,18,0) -0.0
X(1,18,2) 0.0
X(1,18,3) -0.0
X(1,18,4) -0.0
X(1,18,6) -0.0
X(1,18,8) 0.0
X(1,18,9) -0.0
X(1,18,10) -0.0
X(1,18,12) 0.0
X(1,18,14) -0.0
X(1,18,15) -0.0
X(1,2,0) -0.0
X(1,18,16) 0.0
Obj: 48.0
